n_res = 4;
rc = [ 25, 25, 32, 32 ];
n_tasks = 120;
d = [ 8, 3, 6, 1, 10, 2, 10, 6, 8, 1, 2, 1, 5, 1, 4, 6, 1, 6, 8, 9, 8, 3, 3, 3, 10, 1, 3, 4, 7, 8, 5, 10, 9, 10, 6, 9, 5, 2, 7, 9, 5, 7, 10, 9, 1, 2, 8, 9, 6, 2, 5, 5, 9, 2, 9, 2, 10, 5, 4, 3, 9, 10, 3, 10, 4, 5, 6, 8, 8, 8, 10, 9, 7, 1, 8, 8, 5, 1, 7, 5, 4, 6, 5, 1, 7, 1, 6, 5, 1, 10, 4, 1, 5, 5, 5, 4, 5, 4, 7, 7, 6, 7, 7, 3, 7, 7, 2, 4, 4, 6, 10, 2, 4, 10, 1, 6, 9, 7, 4, 5 ];
rr = [| 6, 0, 0, 0, 0, 1, 2, 4, 0, 0, 0, 6, 3, 0, 0, 0, 0, 0, 2, 9, 0, 1, 0, 0, 8, 1, 0, 2, 4, 0, 1, 8, 3, 0, 0, 10, 0, 8, 8, 0, 0, 4, 0, 2, 8, 3, 3, 7, 10, 6, 0, 7, 0, 10, 0, 0, 3, 0, 1, 0, 5, 2, 6, 1, 3, 0, 6, 0, 0, 0, 0, 5, 2, 1, 0, 0, 0, 0, 6, 5, 0, 0, 0, 0, 2, 8, 10, 0, 0, 8, 0, 0, 0, 6, 3, 0, 0, 0, 0, 0, 4, 10, 8, 0, 0, 0, 0, 0, 0, 0, 10, 7, 0, 0, 3, 0, 9, 0, 6, 2
      | 0, 3, 5, 9, 2, 0, 0, 0, 2, 0, 2, 0, 5, 0, 0, 4, 5, 2, 0, 4, 1, 0, 0, 3, 0, 6, 0, 5, 5, 1, 0, 0, 0, 0, 5, 0, 3, 0, 9, 8, 0, 7, 0, 0, 0, 9, 0, 0, 0, 0, 3, 6, 0, 0, 0, 9, 0, 0, 4, 4, 5, 0, 0, 2, 10, 0, 6, 0, 6, 0, 4, 1, 6, 0, 5, 0, 9, 0, 2, 0, 0, 6, 0, 6, 5, 5, 1, 0, 9, 5, 0, 7, 0, 0, 0, 7, 9, 9, 3, 8, 4, 0, 0, 0, 0, 5, 1, 4, 0, 0, 9, 0, 1, 0, 0, 10, 0, 10, 6, 0
      | 8, 8, 7, 0, 2, 0, 3, 0, 5, 6, 4, 0, 0, 6, 6, 6, 1, 0, 0, 0, 8, 0, 0, 0, 5, 0, 0, 0, 0, 0, 10, 0, 8, 6, 5, 2, 0, 0, 0, 9, 10, 7, 0, 0, 8, 0, 2, 4, 3, 0, 10, 3, 6, 0, 0, 0, 1, 0, 0, 0, 7, 1, 3, 0, 0, 0, 0, 8, 7, 0, 0, 10, 0, 6, 10, 0, 9, 1, 2, 0, 0, 0, 7, 0, 0, 7, 0, 4, 9, 9, 7, 0, 0, 9, 1, 0, 6, 5, 9, 0, 0, 0, 8, 8, 3, 0, 0, 0, 10, 1, 0, 8, 10, 5, 1, 8, 0, 5, 0, 0
      | 0, 4, 0, 0, 4, 7, 7, 2, 0, 0, 2, 0, 0, 8, 0, 0, 0, 1, 10, 0, 0, 1, 6, 0, 4, 0, 3, 2, 0, 6, 6, 9, 0, 10, 10, 8, 0, 10, 4, 0, 0, 0, 10, 0, 0, 0, 9, 0, 0, 4, 0, 4, 9, 7, 10, 1, 0, 5, 0, 3, 0, 2, 0, 0, 10, 2, 0, 6, 7, 10, 0, 0, 0, 0, 3, 10, 0, 9, 0, 8, 3, 0, 0, 0, 7, 0, 0, 0, 5, 0, 0, 0, 7, 0, 0, 10, 0, 2, 5, 0, 8, 0, 0, 1, 0, 0, 0, 10, 8, 8, 0, 8, 5, 8, 3, 3, 8, 0, 0, 0 |];
suc = [ { 5, 6, 9 },
       { 4, 16 },
       { 7, 24, 25 },
       { 8, 29, 47 },
       { 14, 27, 30 },
       { 10, 13, 19 },
       { 11, 12, 18 },
       { 36, 51, 78 },
       { 22, 43, 79 },
       { 15, 20, 54 },
       { 21, 101 },
       { 44, 105 },
       { 31, 44, 65 },
       { 16, 17, 103 },
       { 23, 27, 92 },
       { 36, 42 },
       { 32, 58, 89 },
       { 23, 34, 62 },
       { 48, 63, 98 },
       { 27, 66, 110 },
       { 33, 40, 91 },
       { 28, 60, 70 },
       { 26, 40, 50 },
       { 48, 51, 57 },
       { 52, 66, 75 },
       { 64, 68 },
       { 31, 69 },
       { 35, 84, 102 },
       { 38, 64, 69 },
       { 39, 41, 53 },
       { 38 },
       { 46, 55, 73 },
       { 36, 88 },
       { 35, 37, 59 },
       { 38, 49, 80 },
       { 52, 79, 80 },
       { 49, 100 },
       { 101, 104 },
       { 45 },
       { 42, 52, 81 },
       { 56, 92, 106 },
       { 61, 77, 99 },
       { 55, 58, 71 },
       { 63, 73, 111 },
       { 47, 78, 111 },
       { 61, 69, 70 },
       { 57, 72, 98 },
       { 117 },
       { 107 },
       { 73, 76, 86 },
       { 59, 65, 77 },
       { 59, 90 },
       { 58, 62, 94 },
       { 116 },
       { 67 },
       { 64, 77, 83 },
       { 91, 96 },
       { 100 },
       { 61, 76 },
       { 68, 104 },
       { 87, 100 },
       { 82, 87, 93 },
       { 74, 76, 89 },
       { 65, 75 },
       { 67, 71 },
       { 79, 84, 111 },
       { 72, 82, 90 },
       { 74, 78 },
       { 114, 116 },
       { 71, 81, 85 },
       { 74, 90 },
       { 81, 95, 109 },
       { 80, 85 },
       { 86, 97 },
       { 82, 103 },
       { 85, 102, 104 },
       { 108 },
       { 89, 95, 96 },
       { 98 },
       { 94, 97 },
       { 87, 105 },
       { 112 },
       { 86, 88, 115 },
       { 88, 92, 96 },
       { 93, 106 },
       { 112 },
       { 112 },
       { 109 },
       { 91, 97, 99 },
       { 93, 99, 105 },
       { 94, 106 },
       { 95 },
       { 107 },
       { 107 },
       { 116 },
       { 101 },
       { 120 },
       { 108 },
       { 102 },
       { 110 },
       { 103, 120 },
       { 117 },
       { 108 },
       { 114 },
       { 113, 115 },
       { 117 },
       { 110 },
       { 109 },
       { 113 },
       { 115 },
       { 113, 120 },
       { 114 },
       { 119 },
       { 119 },
       { 118, 119 },
       { 118 },
       { 118 },
       {  },
       {  },
       {  } ];
